* #variable= 200 #constraint= 1
min: -813 x1 -311 x2 -945 x3 -112 x4 -7 x5 -617 x6 -992 x7 -829 x8 -561 x9 -875 x10 -191 x11 -482 x12 -578 x13 -395 x14 -889 x15 -789 x16 -474 x17 -504 x18 -943 x19 -780 x20 -673 x21 -176 x22 -784 x23 -84 x24 -617 x25 -988 x26 -809 x27 -235 x28 -546 x29 -40 x30 -738 x31 -21 x32 -98 x33 -599 x34 -413 x35 -651 x36 -918 x37 -692 x38 -603 x39 -923 x40 -306 x41 -171 x42 -821 x43 -672 x44 -345 x45 -653 x46 -268 x47 -329 x48 -722 x49 -938 x50 -213 x51 -456 x52 -623 x53 -553 x54 -69 x55 -889 x56 -795 x57 -339 x58 -404 x59 -658 x60 -455 x61 -766 x62 -297 x63 -417 x64 -969 x65 -949 x66 -970 x67 -272 x68 -41 x69 -733 x70 -622 x71 -454 x72 -873 x73 -674 x74 -66 x75 -896 x76 -73 x77 -112 x78 -884 x79 -517 x80 -380 x81 -525 x82 -23 x83 -927 x84 -899 x85 -571 x86 -371 x87 -852 x88 -956 x89 -740 x90 -608 x91 -948 x92 -295 x93 -734 x94 -847 x95 -22 x96 -172 x97 -958 x98 -565 x99 -403 x100 -668 x101 -608 x102 -437 x103 -524 x104 -314 x105 -36 x106 -633 x107 -566 x108 -542 x109 -517 x110 -61 x111 -659 x112 -262 x113 -612 x114 -208 x115 -397 x116 -9 x117 -665 x118 -471 x119 -12 x120 -202 x121 -913 x122 -448 x123 -991 x124 -517 x125 -771 x126 -688 x127 -327 x128 -273 x129 -428 x130 -841 x131 -142 x132 -954 x133 -930 x134 -588 x135 -719 x136 -369 x137 -670 x138 -663 x139 -951 x140 -227 x141 -834 x142 -547 x143 -696 x144 -931 x145 -138 x146 -588 x147 -647 x148 -629 x149 -392 x150 -878 x151 -67 x152 -808 x153 -375 x154 -680 x155 -638 x156 -374 x157 -625 x158 -352 x159 -177 x160 -579 x161 -356 x162 -211 x163 -295 x164 -240 x165 -143 x166 -679 x167 -915 x168 -219 x169 -754 x170 -55 x171 -526 x172 -229 x173 -635 x174 -433 x175 -600 x176 -103 x177 -765 x178 -552 x179 -264 x180 -210 x181 -27 x182 -930 x183 -119 x184 -58 x185 -643 x186 -461 x187 -254 x188 -293 x189 -29 x190 -178 x191 -648 x192 -382 x193 -458 x194 -518 x195 -537 x196 -193 x197 -594 x198 -353 x199 -606 x200 ;
-813 x1 -311 x2 -945 x3 -112 x4 -7 x5 -617 x6 -992 x7 -829 x8 -561 x9 -875 x10 -191 x11 -482 x12 -578 x13 -395 x14 -889 x15 -789 x16 -474 x17 -504 x18 -943 x19 -780 x20 -673 x21 -176 x22 -784 x23 -84 x24 -617 x25 -988 x26 -809 x27 -235 x28 -546 x29 -40 x30 -738 x31 -21 x32 -98 x33 -599 x34 -413 x35 -651 x36 -918 x37 -692 x38 -603 x39 -923 x40 -306 x41 -171 x42 -821 x43 -672 x44 -345 x45 -653 x46 -268 x47 -329 x48 -722 x49 -938 x50 -213 x51 -456 x52 -623 x53 -553 x54 -69 x55 -889 x56 -795 x57 -339 x58 -404 x59 -658 x60 -455 x61 -766 x62 -297 x63 -417 x64 -969 x65 -949 x66 -970 x67 -272 x68 -41 x69 -733 x70 -622 x71 -454 x72 -873 x73 -674 x74 -66 x75 -896 x76 -73 x77 -112 x78 -884 x79 -517 x80 -380 x81 -525 x82 -23 x83 -927 x84 -899 x85 -571 x86 -371 x87 -852 x88 -956 x89 -740 x90 -608 x91 -948 x92 -295 x93 -734 x94 -847 x95 -22 x96 -172 x97 -958 x98 -565 x99 -403 x100 -668 x101 -608 x102 -437 x103 -524 x104 -314 x105 -36 x106 -633 x107 -566 x108 -542 x109 -517 x110 -61 x111 -659 x112 -262 x113 -612 x114 -208 x115 -397 x116 -9 x117 -665 x118 -471 x119 -12 x120 -202 x121 -913 x122 -448 x123 -991 x124 -517 x125 -771 x126 -688 x127 -327 x128 -273 x129 -428 x130 -841 x131 -142 x132 -954 x133 -930 x134 -588 x135 -719 x136 -369 x137 -670 x138 -663 x139 -951 x140 -227 x141 -834 x142 -547 x143 -696 x144 -931 x145 -138 x146 -588 x147 -647 x148 -629 x149 -392 x150 -878 x151 -67 x152 -808 x153 -375 x154 -680 x155 -638 x156 -374 x157 -625 x158 -352 x159 -177 x160 -579 x161 -356 x162 -211 x163 -295 x164 -240 x165 -143 x166 -679 x167 -915 x168 -219 x169 -754 x170 -55 x171 -526 x172 -229 x173 -635 x174 -433 x175 -600 x176 -103 x177 -765 x178 -552 x179 -264 x180 -210 x181 -27 x182 -930 x183 -119 x184 -58 x185 -643 x186 -461 x187 -254 x188 -293 x189 -29 x190 -178 x191 -648 x192 -382 x193 -458 x194 -518 x195 -537 x196 -193 x197 -594 x198 -353 x199 -606 x200 >= -51442 ;